% Instancia problemática tipo: COSTOS_PROHIBITIVOS
% Razón: Costos de transporte extremadamente altos (>5000)
% Demanda total: 1520.26
% Suministro total: 1672.29
% Factor holgura: 1.1

nP = 3;
nT = 4;
nC1 = 5;
nC2 = 7;
nA = 67;
nD = 3;

arc_from = [1, 1, 1, 1, 2, 2, 2, 2, 3, 3, 3, 3, 4, 4, 4, 4, 4, 5, 5, 5, 5, 5, 6, 6, 6, 6, 6, 7, 7, 7, 7, 7, 8, 8, 8, 8, 8, 8, 8, 9, 9, 9, 9, 9, 9, 9, 10, 10, 10, 10, 10, 10, 10, 11, 11, 11, 11, 11, 11, 11, 12, 12, 12, 12, 12, 12, 12];
arc_to = [4, 5, 6, 7, 4, 5, 6, 7, 4, 5, 6, 7, 8, 9, 10, 11, 12, 8, 9, 10, 11, 12, 8, 9, 10, 11, 12, 8, 9, 10, 11, 12, 13, 14, 15, 16, 17, 18, 19, 13, 14, 15, 16, 17, 18, 19, 13, 14, 15, 16, 17, 18, 19, 13, 14, 15, 16, 17, 18, 19, 13, 14, 15, 16, 17, 18, 19];

supply = [557.43, 557.43, 557.43, 0, 0, 0, 0, 0, 0, 0, 0, 0, 0, 0, 0, 0, 0, 0, 0];
demand = [0, 0, 0, 0, 0, 0, 0, 124.50, 105.54, 105.91, 94.67, 98.69, 174.93, 151.84, 148.73, 113.69, 158.33, 113.07, 130.36];

max_capacity = [795, 1414, 3181];

install_cost = array2d(1..nA, 1..nD, [
  20, 24, 32,
  50, 62, 78,
  20, 24, 32,
  50, 62, 78,
  20, 24, 32,
  50, 62, 78,
  20, 24, 32,
  50, 62, 78,
  20, 24, 32,
  50, 62, 78,
  20, 24, 32,
  50, 62, 78,
  20, 24, 32,
  50, 62, 78,
  20, 24, 32,
  50, 62, 78,
  20, 24, 32,
  50, 62, 78,
  20, 24, 32,
  50, 62, 78,
  20, 24, 32,
  50, 62, 78,
  20, 24, 32,
  50, 62, 78,
  20, 24, 32,
  50, 62, 78,
  20, 24, 32,
  50, 62, 78,
  20, 24, 32,
  50, 62, 78,
  20, 24, 32,
  50, 62, 78,
  20, 24, 32,
  50, 62, 78,
  20, 24, 32,
  50, 62, 78,
  20, 24, 32,
  50, 62, 78,
  20, 24, 32,
  50, 62, 78,
  20, 24, 32,
  50, 62, 78,
  20, 24, 32,
  50, 62, 78,
  20, 24, 32,
  50, 62, 78,
  20, 24, 32,
  50, 62, 78,
  20, 24, 32,
  50, 62, 78,
  20, 24, 32,
  50, 62, 78,
  20, 24, 32,
  50, 62, 78,
  20, 24, 32,
  50, 62, 78,
  20, 24, 32,
  50, 62, 78,
  20, 24, 32,
  50, 62, 78,
  20, 24, 32,
  50, 62, 78,
  20, 24, 32,
  50, 62, 78,
  20, 24, 32,
  50, 62, 78,
  20, 24, 32
]);

trans_cost = [19842.85, 14600, 13354.25, 15269.21, 17642.78, 16640, 8435.72, 5481.50, 9731.80, 9016.11, 8164.74, 19143.65, 18145.51, 9720.17, 14831.58, 10934.48, 18718.21, 11882.78, 8973.20, 8699.41, 13420.52, 8941.12, 13768.79, 18467.34, 10991.01, 8289.81, 19963.06, 12642.89, 6363.64, 5706.75, 6644.74, 14411.69, 16881.19, 11332.40, 5952.92, 10724.29, 19941.82, 12936.72, 19566.18, 17911.70, 5172.22, 15810.83, 15225.66, 13054.55, 9002.38, 14614.43, 6673.28, 11521.48, 11805.86, 19307.24, 18137.79, 8950.84, 12508.79, 7679.78, 18689.42, 18057.78, 9476.67, 14584.24, 14134.55, 7292.59, 16437.66, 13090.69, 16679.40, 12955.31, 5008.58, 9862.34, 5292.15];
